COLUMNS

passenger_count
pickup_ID
dropoff_ID
request_time_sec
pickup_district
dropoff_district
LDuals
IDuals
vehicle_ID
pick_position
drop_position

REQUESTS_INFO
2      863       990       30390     290       290       350       350       58        1         3         
1      812       674       30542     290       189       153       153       63        1         2         
1      500       350       30548     52        127       163       163       68        1         2         
3      771       841       30489     290       290       199       199       70        1         2         
1      743       290       30519     290       127       156       156       71        1         3         
1      1152      1263      30424     291       192       304       304       81        1         2         
2      522       526       30541     52        52        204       204       117       1         2         
1      915       980       30542     291       291       180       180       234       1         2         
1      1300      1107      30550     192       291       183       183       262       1         2         
1      795       959       30542     290       291       167       167       283       1         3         
1      285       557       30528     299       189       129       129       297       1         3         
2      310       328       30530     127       299       217       217       318       1         2         
1      816       649       30419     290       189       282       282       355       1         4         
1      293       414       30561     87        100       114       114       365       1         3         
1      1022      851       30555     291       291       194       194       367       1         2         
1      1187      1074      30562     291       84        129       129       372       1         3         
2      1002      870       30520     291       291       234       234       412       1         2         
1      248       552       30540     266       189       125       125       429       1         3         
1      795       984       30507     290       291       208       208       437       1         3         
3      1128      1003      30506     291       291       245       245       452       1         2         
3      960       860       30550     291       290       152       152       459       1         3         
1      894       737       30499     291       189       202       202       473       1         2         
2      990       602       30417     290       189       355       355       481       1         2         
1      991       573       30518     290       189       157       157       493       1         4         
2      291       238       30451     87        87        299       299       500       1         2         
1      272       532       30513     127       199       203       203       518       1         2         
3      356       355       30556     119       119       179       179       523       1         2         
1      233       197       30568     206       178       117       117       530       1         3         
1      925       1025      30561     290       291       215       215       557       1         3         
4      903       915       30563     290       291       209       209       566       1         2         
1      1208      651       30563     192       189       175       175       610       1         3         
3      553       575       30540     189       189       114       114       668       1         2         
3      311       576       30530     87        189       211       211       683       1         3         
2      334       605       30551     119       189       189       189       687       1         3         
1      328       675       30557     299       189       139       139       694       1         3         
3      304       31        30558     299       9         116       116       704       1         3         
1      1034      1200      30569     84        84        246       246       708       1         3         
4      969       903       30459     290       290       340       340       717       1         2         
1      442       378       30549     168       168       157       157       725       1         2         
1      1127      1023      30408     291       291       368       368       778       1         2         
1      972       700       30362     290       290       347       347       789       1         2         
3      334       605       30551     119       189       193       193       811       1         2         
2      839       743       30482     290       290       304       304       851       1         2         
1      234       117       30565     87        286       161       161       858       1         2         
3      1128      1003      30506     291       291       245       245       862       1         3         
1      443       674       30568     168       189       128       128       863       1         2         
3      950       91        30335     290       178       474       474       871       1         2         
1      488       607       30544     199       189       153       153       880       1         2         
1      350       135       30566     127       286       186       186       883       1         3         
2      476       507       30562     52        189       179       179       895       1         3         
3      745       651       30568     290       189       151       151       908       1         2         
1      888       180       30433     290       178       298       298       917       1         4         
1      886       723       30407     290       290       375       375       917       2         3         
1      903       670       30559     290       280       187       187       929       1         4         
1      904       1151      30535     290       291       249       249       949       1         2         
1      327       399       30557     299       168       158       158       965       1         3         
2      498       534       30566     52        199       187       187       968       1         2         
2      462       600       30459     189       280       220       220       975       1         2         
1      905       813       30516     290       290       231       231       987       1         2         
3      669       575       30546     280       189       161       161       995       1         2         
3      790       649       30543     290       189       144       144       1008      1         2         
3      1079      1137      30528     84        84        240       240       1016      1         2         
1      916       674       30558     291       189       171       171       1027      1         2         
1      835       699       30560     290       290       139       139       1050      1         2         
1      479       292       30563     52        87        150       150       1058      1         3         
3      1048      1032      30450     291       84        320       320       1063      1         2         
2      841       812       30376     290       290       351       351       1066      1         2         
3      498       534       30566     52        199       187       187       1079      1         3         
3      356       355       30556     119       119       179       179       1082      1         2         
1      583       676       30569     189       189       119       119       1100      1         2         
1      749       1208      30499     290       192       176       176       1109      1         3         
1      217       232       30569     87        266       145       145       1124      1         2         
1      983       896       30521     291       291       190       190       1150      1         4         
1      815       652       30516     290       189       234       234       1162      1         2         
3      860       696       30524     290       189       248       248       1234      1         2         
1      655       884       30543     189       290       114       114       1244      1         2         
1      535       509       30559     189       199       99        99        1251      1         2         
4      1053      1207      30390     84        192       427       427       1285      1         2         
3      1069      604       30477     291       189       325       325       1320      1         2         
1      257       49        30541     87        98        172       172       1342      1         2         
2      882       744       30547     290       290       164       164       1343      1         4         
2      860       696       30524     290       189       248       248       1343      2         3         
1      291       49        30523     87        98        189       189       1370      1         3         
1      936       603       30549     291       189       168       168       1397      1         4         
3      158       333       30569     174       119       138       138       1400      1         2         
1      915       748       30569     291       290       133       133       1410      1         3         
2      818       859       30549     290       290       193       193       1414      1         3         
1      946       772       30557     290       290       210       210       1416      1         2         
1      1004      530       30538     291       189       250       250       1432      1         2         
1      927       557       30528     290       189       155       155       1445      1         3         
1      1128      947       30548     291       290       142       142       1453      1         4         
2      550       532       30542     189       199       131       131       1483      1         2         
2      311       576       30530     87        189       160       160       1493      1         4         
1      461       670       30570     189       280       0         0         0         0         0         
1      1044      476       30570     291       52        0         0         0         0         0         
2      267       81        30571     266       98        0         0         0         0         0         
3      267       81        30571     266       98        0         0         0         0         0         
2      356       399       30571     119       168       0         0         0         0         0         
3      356       399       30571     119       168       0         0         0         0         0         
3      608       504       30571     189       52        0         0         0         0         0         
3      608       504       30571     189       52        0         0         0         0         0         
2      632       748       30571     189       290       0         0         0         0         0         
1      1263      850       30571     192       291       0         0         0         0         0         
1      691       393       30571     131       52        0         0         0         0         0         
1      191       35        30571     266       98        0         0         0         0         0         
2      771       460       30571     290       189       0         0         0         0         0         
1      81        48        30571     98        98        0         0         0         0         0         
1      533       858       30572     199       290       0         0         0         0         0         
1      1010      810       30572     290       290       0         0         0         0         0         
1      749       606       30572     290       189       0         0         0         0         0         
1      680       602       30572     290       189       0         0         0         0         0         
1      735       437       30572     131       100       0         0         0         0         0         
1      348       600       30573     299       280       0         0         0         0         0         
1      545       193       30573     52        266       0         0         0         0         0         
1      304       171       30573     299       286       0         0         0         0         0         
1      488       530       30573     199       189       0         0         0         0         0         
2      584       813       30573     189       290       0         0         0         0         0         
1      948       789       30573     290       290       0         0         0         0         0         
2      232       353       30575     266       119       0         0         0         0         0         
1      233       10        30575     206       98        0         0         0         0         0         
1      312       416       30575     87        100       0         0         0         0         0         
1      719       673       30575     189       189       0         0         0         0         0         
1      440       293       30575     168       87        0         0         0         0         0         
1      462       697       30575     189       189       0         0         0         0         0         
1      30        47        30575     9         98        0         0         0         0         0         
2      621       1011      30575     280       84        0         0         0         0         0         
2      408       549       30576     299       52        0         0         0         0         0         
1      583       767       30576     189       290       0         0         0         0         0         
1      605       452       30576     189       52        0         0         0         0         0         
2      969       656       30576     290       290       0         0         0         0         0         
3      715       35        30576     131       98        0         0         0         0         0         
1      290       392       30576     127       52        0         0         0         0         0         
1      419       556       30577     168       199       0         0         0         0         0         
1      940       895       30577     291       291       0         0         0         0         0         
1      858       557       30577     290       189       0         0         0         0         0         
1      171       267       30577     286       266       0         0         0         0         0         
4      435       748       30577     52        290       0         0         0         0         0         
1      198       416       30577     178       100       0         0         0         0         0         
1      481       768       30577     189       290       0         0         0         0         0         
1      31        107       30578     9         178       0         0         0         0         0         
1      78        535       30578     9         189       0         0         0         0         0         
1      437       232       30578     100       266       0         0         0         0         0         
1      504       438       30578     52        100       0         0         0         0         0         
3      395       358       30579     100       168       0         0         0         0         0         
1      811       837       30579     290       290       0         0         0         0         0         
1      793       531       30579     290       189       0         0         0         0         0         
1      527       395       30579     52        100       0         0         0         0         0         
2      395       358       30579     100       168       0         0         0         0         0         
2      512       295       30579     199       87        0         0         0         0         0         
1      500       603       30580     52        189       0         0         0         0         0         
1      173       810       30580     286       290       0         0         0         0         0         
1      418       440       30580     168       168       0         0         0         0         0         
1      457       368       30580     52        299       0         0         0         0         0         
2      1024      1129      30580     291       291       0         0         0         0         0         
1      459       579       30580     189       189       0         0         0         0         0         
1      311       374       30580     87        119       0         0         0         0         0         
2      771       816       30580     290       290       0         0         0         0         0         
1      609       398       30580     189       168       0         0         0         0         0         
1      464       399       30580     168       168       0         0         0         0         0         
3      828       904       30580     291       290       0         0         0         0         0         
3      828       904       30580     291       290       0         0         0         0         0         
1      698       671       30581     189       280       0         0         0         0         0         
1      723       772       30581     290       290       0         0         0         0         0         
1      748       760       30581     290       291       0         0         0         0         0         
1      630       512       30581     189       199       0         0         0         0         0         
1      1195      1056      30582     129       84        0         0         0         0         0         
1      680       601       30582     290       189       0         0         0         0         0         
1      720       721       30582     290       290       0         0         0         0         0         
4      233       433       30582     206       52        0         0         0         0         0         
1      326       134       30582     299       9         0         0         0         0         0         
3      527       272       30582     52        127       0         0         0         0         0         
3      527       272       30582     52        127       0         0         0         0         0         
2      675       247       30582     189       266       0         0         0         0         0         
1      605       504       30583     189       52        0         0         0         0         0         
3      370       409       30583     52        52        0         0         0         0         0         
2      370       409       30583     52        52        0         0         0         0         0         
1      744       652       30583     290       189       0         0         0         0         0         
1      700       793       30583     290       290       0         0         0         0         0         
1      851       760       30584     291       291       0         0         0         0         0         
1      328       625       30584     299       189       0         0         0         0         0         
1      247       289       30584     266       127       0         0         0         0         0         
1      194       335       30584     207       119       0         0         0         0         0         
2      1503      1404      30585     296       129       0         0         0         0         0         
1      574       597       30585     189       131       0         0         0         0         0         
1      434       462       30585     52        189       0         0         0         0         0         
1      693       554       30585     280       189       0         0         0         0         0         
3      291       348       30585     87        299       0         0         0         0         0         
2      376       435       30585     168       52        0         0         0         0         0         
1      434       192       30586     52        266       0         0         0         0         0         
1      217       313       30586     87        87        0         0         0         0         0         
2      171       461       30586     286       189       0         0         0         0         0         
1      210       284       30587     266       299       0         0         0         0         0         
1      440       508       30587     168       199       0         0         0         0         0         
1      194       604       30587     207       189       0         0         0         0         0         
1      304       600       30587     299       280       0         0         0         0         0         
1      736       544       30587     131       52        0         0         0         0         0         
1      603       739       30587     189       189       0         0         0         0         0         
1      455       651       30587     52        189       0         0         0         0         0         
1      726       701       30588     290       290       0         0         0         0         0         
2      861       814       30588     290       290       0         0         0         0         0         
3      861       814       30588     290       290       0         0         0         0         0         
1      584       653       30588     189       189       0         0         0         0         0         
3      599       937       30589     280       291       0         0         0         0         0         
2      599       937       30589     280       291       0         0         0         0         0         
3      1265      1130      30589     192       291       0         0         0         0         0         
3      1265      1130      30589     192       291       0         0         0         0         0         
1      1319      1148      30589     129       291       0         0         0         0         0         
1      579       579       30589     189       189       0         0         0         0         0         
1      650       438       30589     189       100       0         0         0         0         0         
1      10        581       30589     98        189       0         0         0         0         0         
1      817       554       30589     290       189       0         0         0         0         0         
1      674       558       30590     189       189       0         0         0         0         0         
1      529       605       30590     189       189       0         0         0         0         0         
1      509       647       30590     199       280       0         0         0         0         0         
1      444       485       30590     168       189       0         0         0         0         0         
1      655       608       30590     189       189       0         0         0         0         0         
2      1004      916       30590     291       291       0         0         0         0         0         
1      522       396       30590     52        119       0         0         0         0         0         
1      736       553       30590     131       189       0         0         0         0         0         
2      621       639       30590     280       131       0         0         0         0         0         
1      718       574       30591     189       189       0         0         0         0         0         
1      578       431       30591     189       52        0         0         0         0         0         
1      236       532       30591     87        199       0         0         0         0         0         
1      601       715       30591     189       131       0         0         0         0         0         
1      1310      1053      30591     84        84        0         0         0         0         0         
1      627       512       30591     189       199       0         0         0         0         0         
3      680       711       30592     290       131       0         0         0         0         0         
2      417       430       30592     100       52        0         0         0         0         0         
2      745       482       30592     290       189       0         0         0         0         0         
3      745       482       30592     290       189       0         0         0         0         0         
1      837       556       30592     290       199       0         0         0         0         0         
1      723       837       30592     290       290       0         0         0         0         0         
2      375       575       30593     119       189       0         0         0         0         0         
1      781       722       30593     291       290       0         0         0         0         0         
1      356       35        30593     119       98        0         0         0         0         0         
1      529       415       30593     189       100       0         0         0         0         0         
1      62        192       30593     98        266       0         0         0         0         0         
1      500       556       30594     52        199       0         0         0         0         0         
1      839       903       30595     290       290       0         0         0         0         0         
1      618       393       30595     131       52        0         0         0         0         0         
1      926       1054      30595     290       84        0         0         0         0         0         
1      44        624       30595     98        189       0         0         0         0         0         
2      442       647       30595     168       280       0         0         0         0         0         
1      217       332       30595     87        87        0         0         0         0         0         
1      1129      526       30595     291       52        0         0         0         0         0         
1      816       440       30595     290       168       0         0         0         0         0         
1      818       355       30595     290       119       0         0         0         0         0         
1      529       694       30595     189       189       0         0         0         0         0         
4      936       1373      30596     291       129       0         0         0         0         0         
1      719       48        30596     189       98        0         0         0         0         0         
1      213       289       30596     266       127       0         0         0         0         0         
2      810       527       30596     290       52        0         0         0         0         0         
1      575       213       30597     189       266       0         0         0         0         0         
1      500       458       30597     52        52        0         0         0         0         0         
3      504       458       30597     52        52        0         0         0         0         0         
3      504       458       30597     52        52        0         0         0         0         0         
1      885       527       30598     290       52        0         0         0         0         0         
1      556       376       30598     199       168       0         0         0         0         0         
1      748       408       30598     290       299       0         0         0         0         0         
4      549       628       30598     52        189       0         0         0         0         0         
3      461       250       30598     189       127       0         0         0         0         0         
2      47        60        30598     98        9         0         0         0         0         0         
1      505       44        30598     52        98        0         0         0         0         0         
1      760       674       30598     291       189       0         0         0         0         0         
3      441       674       30598     168       189       0         0         0         0         0         
2      461       250       30598     189       127       0         0         0         0         0         
3      408       19        30599     299       98        0         0         0         0         0         
3      408       19        30599     299       98        0         0         0         0         0         
3      189       135       30599     286       286       0         0         0         0         0         
2      189       135       30599     286       286       0         0         0         0         0         
1      509       499       30599     199       52        0         0         0         0         0         
2      694       698       30599     189       189       0         0         0         0         0         
1      622       557       30599     280       189       0         0         0         0         0         
1      662       649       30599     131       189       0         0         0         0         0         
1      530       304       30599     189       299       0         0         0         0         0         
1      573       138       30599     189       57        0         0         0         0         0         
